38 1000
9 138
7 148
4 138
6 125
9 110
3 192
6 131
9 138
3 149
5 186
10 157
8 122
11 192
10 194
11 163
10 110
7 157
6 119
10 100
8 108
5 122
6 194
2 149
6 125
7 138
2 148
11 186
8 130
2 163
9 119
4 169
11 152
5 152
10 100
2 130
4 131
10 108
11 169
